Academic license - for non-commercial use only
Optimize a model with 56 rows, 158 columns and 876 nonzeros
Variable types: 0 continuous, 158 integer (158 binary)
Coefficient statistics:
  Matrix range     [1e+00, 1e+00]
  Objective range  [1e+01, 6e+02]
  Bounds range     [1e+00, 1e+00]
  RHS range        [1e+00, 1e+00]
Found heuristic solution: objective 1038.0941667
Presolve removed 23 rows and 14 columns
Presolve time: 0.01s
Presolved: 33 rows, 144 columns, 621 nonzeros
Variable types: 0 continuous, 144 integer (144 binary)

Root relaxation: objective 1.307962e+03, 39 iterations, 0.00 seconds

    Nodes    |    Current Node    |     Objective Bounds      |     Work
 Expl Unexpl |  Obj  Depth IntInf | Incumbent    BestBd   Gap | It/Node Time

*    0     0               0    1307.9624000 1307.96240  0.00%     -    0s

Explored 0 nodes (39 simplex iterations) in 0.01 seconds
Thread count was 8 (of 8 available processors)

Solution count 2: 1307.96 1038.09 

Optimal solution found (tolerance 1.00e-04)
Best objective 1.307962400000e+03, best bound 1.307962400000e+03, gap 0.0000%
Obj: 1307.96
